
Gurobi 10.0.1 (linux64) logging started Sun Nov 26 16:05:58 2023

Set parameter LogFile to value "ArtificialInstance/ExperimentV2/S3T4K2/BaRo/gurobi91.txt"
Gurobi Optimizer version 10.0.1 build v10.0.1rc0 (linux64)

CPU model: AMD EPYC 7H12 64-Core Processor, instruction set [SSE2|AVX|AVX2]
Thread count: 128 physical cores, 128 logical processors, using up to 32 threads

Academic license 656792 - for non-commercial use only - registered to b.___@student.vu.nl
Optimize a model with 2763 rows, 4161 columns and 14403 nonzeros
Model fingerprint: 0x6ff63604
Variable types: 1 continuous, 4160 integer (4160 binary)
Coefficient statistics:
  Matrix range     [1e+00, 4e+01]
  Objective range  [1e+00, 2e+01]
  Bounds range     [1e+00, 1e+00]
  RHS range        [1e+00, 1e+00]
Found heuristic solution: objective 633.5730025
Presolve time: 0.02s
Presolved: 2763 rows, 4161 columns, 14403 nonzeros
Variable types: 1 continuous, 4160 integer (4160 binary)

Root relaxation: objective 4.920600e+01, 3545 iterations, 0.13 seconds (0.12 work units)

    Nodes    |    Current Node    |     Objective Bounds      |     Work
 Expl Unexpl |  Obj  Depth IntInf | Incumbent    BestBd   Gap | It/Node Time

     0     0   49.20600    0  560  633.57300   49.20600  92.2%     -    0s
H    0     0                     281.1422251   49.20600  82.5%     -    0s
H    0     0                      88.8872195   49.20600  44.6%     -    0s
     0     0   53.53338    0  856   88.88722   53.53338  39.8%     -    0s
     0     0   60.04318    0  915   88.88722   60.04318  32.5%     -    0s
     0     0   60.18355    0  856   88.88722   60.18355  32.3%     -    0s
     0     0   60.18356    0  872   88.88722   60.18356  32.3%     -    0s
H    0     0                      82.4402010   62.27064  24.5%     -    0s
H    0     0                      79.6897209   62.27064  21.9%     -    0s
     0     0   62.27064    0  994   79.68972   62.27064  21.9%     -    1s
H    0     0                      78.2749806   62.27064  20.4%     -    1s
     0     0   62.48076    0  972   78.27498   62.48076  20.2%     -    1s
     0     0   62.48084    0  975   78.27498   62.48084  20.2%     -    1s
H    0     0                      73.0978024   62.48084  14.5%     -    1s
     0     0   63.32331    0  870   73.09780   63.32331  13.4%     -    1s
     0     0   63.45049    0  859   73.09780   63.45049  13.2%     -    1s
     0     0   63.45491    0  862   73.09780   63.45491  13.2%     -    1s
     0     0   63.45925    0  850   73.09780   63.45925  13.2%     -    1s
     0     0   63.46044    0  886   73.09780   63.46044  13.2%     -    1s
     0     0   63.63296    0  782   73.09780   63.63296  12.9%     -    1s
     0     0   63.88822    0  925   73.09780   63.88822  12.6%     -    1s
     0     0   63.99153    0  914   73.09780   63.99153  12.5%     -    1s
     0     0   63.99305    0  905   73.09780   63.99305  12.5%     -    1s
     0     0   64.50129    0  859   73.09780   64.50129  11.8%     -    1s
     0     0   64.61935    0  871   73.09780   64.61935  11.6%     -    1s
     0     0   64.62566    0  867   73.09780   64.62566  11.6%     -    1s
     0     0   64.62652    0  870   73.09780   64.62652  11.6%     -    1s
     0     0   64.94420    0  843   73.09780   64.94420  11.2%     -    2s
     0     0   65.09885    0  846   73.09780   65.09885  10.9%     -    2s
     0     0   65.11144    0  856   73.09780   65.11144  10.9%     -    2s
     0     0   65.11841    0  876   73.09780   65.11841  10.9%     -    2s
     0     0   65.11841    0  876   73.09780   65.11841  10.9%     -    2s
     0     0   65.16955    0  893   73.09780   65.16955  10.8%     -    2s
     0     0   65.16955    0  885   73.09780   65.16955  10.8%     -    2s
     0     0   65.19407    0  885   73.09780   65.19407  10.8%     -    2s
     0     0   65.19726    0  895   73.09780   65.19726  10.8%     -    2s
     0     0   65.19865    0  898   73.09780   65.19865  10.8%     -    2s
     0     0   65.19865    0  832   73.09780   65.19865  10.8%     -    2s
     0     2   65.19865    0  817   73.09780   65.19865  10.8%     -    3s

Cutting planes:
  Gomory: 5
  Zero half: 131
  RLT: 138

Explored 301 nodes (81930 simplex iterations) in 4.56 seconds (3.41 work units)
Thread count was 32 (of 128 available processors)

Solution count 7: 73.0978 78.275 79.6897 ... 633.573

Optimal solution found (tolerance 1.00e-04)
Best objective 7.309780244756e+01, best bound 7.309780244756e+01, gap 0.0000%
